SPARKNaCl/why3-z3/sparknacl-sign.adb_1130_39_overflow_check_1.smt2
;; produced by z3_gnatprove.drv ;;
(set-info :smt-lib-version 2.5)
(set-info :source |VC generated by SPARK 2014|)
(set-info :category industrial)
(set-info :status unknown)
;;; generated by SMT-LIB2 driver
;;; SMT-LIB2 driver: bit-vectors, common part
;;; SMT-LIB2: integer arithmetic
(declare-datatypes ()
  ((int__ref (int__refqtmk (int__content Int)))))

(declare-datatypes ()
  ((bool__ref (bool__refqtmk (bool__content Bool)))))

;; "length"
(define-fun length ((x Int) (y Int)) Int
  (ite (<= x y) (+ (- y x) 1) 0))

(declare-sort byte 0)

;; "to_rep"
(declare-fun to_rep (byte) (_ BitVec 8))

;; "of_rep"
(declare-fun of_rep ((_ BitVec 8)) byte)

;; "inversion_axiom"
(assert
  (forall ((x byte)) (! (= (of_rep (to_rep x)) x) :pattern ((to_rep x)) )))

;; "range_axiom"
(assert true)

;; "coerce_axiom"
(assert
  (forall ((x (_ BitVec 8)))
    (! (= (to_rep (of_rep x)) x) :pattern ((to_rep (of_rep x))) )))

(declare-sort map1 0)

(declare-datatypes ()
  ((map__ref (map__refqtmk (map__content map1)))))

;; "has_bounds"
(declare-fun has_bounds (map1
  Int
  Int) Bool)

;; "get"
(declare-fun get (map1
  Int) byte)

;; "slide"
(declare-fun slide (map1
  Int
  Int) map1)

;; "slide_eq"
(assert
  (forall ((a map1) (first Int))
    (! (= (slide a first first) a) :pattern ((slide a first first)) )))

;; "slide_def"
(assert
  (forall ((a map1) (old_first Int) (new_first Int))
    (! (and
         (forall ((i Int))
           (! (= (get (slide a old_first new_first) i) (get
                                                         a
                                                         (- i (- new_first old_first)))) :pattern (
           (get
             (slide a old_first new_first)
             i)) ))
         (forall ((new_last Int))
           (! (=>
                (has_bounds a old_first (- new_last (- new_first old_first)))
                (has_bounds (slide a old_first new_first) new_first new_last)) :pattern (
           (has_bounds
             (slide a old_first new_first)
             new_first
             new_last)) ))) :pattern ((slide a old_first new_first)) )))

;; "slice"
(declare-fun slice (map1
  Int
  Int) map1)

;; "slice_eq"
(assert
  (forall ((a map1) (f Int) (l Int))
    (! (=> (has_bounds a f l) (= (slice a f l) a)) :pattern ((slice a f l)
    (has_bounds a f l)) )))

;; "slice_slice"
(assert
  (forall ((a map1) (f1 Int) (l1 Int) (f2 Int) (l2 Int))
    (! (=>
         (and (<= f1 f2) (<= l2 l1))
         (= (slice (slice a f1 l1) f2 l2) (slice a f2 l2))) :pattern (
    (slice
      (slice a f1 l1)
      f2
      l2)) )))

;; "slice_def"
(assert
  (forall ((a map1) (f Int) (l Int))
    (! (forall ((i Int))
         (! (=> (and (<= f i) (<= i l)) (= (get (slice a f l) i) (get a i))) :pattern (
         (get
           (slice a f l)
           i)) :pattern ((get a i)) )) :pattern ((slice a f l)) )))

;; "slice_has_bounds"
(assert
  (forall ((a map1) (f Int) (l Int))
    (! (has_bounds (slice a f l) f l) :pattern ((has_bounds
                                                  (slice a f l)
                                                  f
                                                  l)) )))

(declare-datatypes ()
  ((us_split_fields
   (us_split_fieldsqtmk (rec__ada___sparknacl__sign__signing_pk__f map1)))))

(declare-datatypes ()
  ((us_rep (us_repqtmk (us_split_fields1 us_split_fields)))))

;; "dynamic_invariant"
(define-fun dynamic_invariant ((temp___expr_531 us_rep) (temp___is_init_527 Bool) (temp___skip_constant_528 Bool) (temp___do_toplevel_529 Bool) (temp___do_typ_inv_530 Bool)) Bool
  (has_bounds
    (rec__ada___sparknacl__sign__signing_pk__f
      (us_split_fields1 temp___expr_531))
    0
    31))

;; "serialize"
(declare-fun serialize (us_rep) map1)

;; "serialize__function_guard"
(declare-fun serialize__function_guard (map1
  us_rep) Bool)

(declare-sort tinteger_32B 0)

;; "tinteger_32B'int"
(declare-fun tinteger_32Bqtint (tinteger_32B) Int)

;; "tinteger_32B'axiom"
(assert
  (forall ((i tinteger_32B))
    (and
      (<= (- 2147483648) (tinteger_32Bqtint i))
      (<= (tinteger_32Bqtint i) 2147483647))))

;; "in_range"
(define-fun in_range ((x Int)) Bool
  (and (<= (- 2147483648) x) (<= x 2147483647)))

;; "to_rep"
(define-fun to_rep1 ((x tinteger_32B)) Int
  (tinteger_32Bqtint x))

;; "of_rep"
(declare-fun of_rep1 (Int) tinteger_32B)

;; "inversion_axiom"
(assert
  (forall ((x tinteger_32B))
    (! (= (of_rep1 (to_rep1 x)) x) :pattern ((to_rep1 x)) )))

;; "range_axiom"
(assert
  (forall ((x tinteger_32B))
    (! (in_range (to_rep1 x)) :pattern ((to_rep1 x)) )))

;; "coerce_axiom"
(assert
  (forall ((x Int))
    (! (=> (in_range x) (= (to_rep1 (of_rep1 x)) x)) :pattern ((to_rep1
                                                                 (of_rep1 x))) )))

;; "in_range"
(define-fun in_range1 ((x Int)) Bool
  (and (<= 0 x) (<= x 2147483647)))

(declare-datatypes ()
  ((t (tqtmk (rec__first tinteger_32B)(rec__last tinteger_32B)))))

;; "mk"
(declare-fun mk (Int
  Int) t)

;; "mk_def"
(assert
  (forall ((f Int) (l Int))
    (! (=>
         (in_range f)
         (=>
           (in_range l)
           (and
             (= (to_rep1 (rec__first (mk f l))) f)
             (= (to_rep1 (rec__last (mk f l))) l)))) :pattern ((mk f l)) )))

;; "dynamic_property"
(define-fun dynamic_property ((range_first Int) (range_last Int) (low Int) (high Int)) Bool
  (and
    (in_range low)
    (and
      (in_range high)
      (=> (<= low high) (and (in_range1 low) (in_range1 high))))))

(declare-datatypes ()
  ((us_t (us_tqtmk (elts map1)(rt t)))))

;; "to_array"
(define-fun to_array ((a us_t)) map1
  (elts a))

;; "of_array"
(define-fun of_array ((a map1) (f Int) (l Int)) us_t
  (us_tqtmk a (mk f l)))

;; "first"
(define-fun first ((a us_t)) Int
  (to_rep1 (rec__first (rt a))))

;; "last"
(define-fun last ((a us_t)) Int
  (to_rep1 (rec__last (rt a))))

;; "length"
(define-fun length1 ((a us_t)) Int
  (ite (<= (first a) (last a)) (+ (- (last a) (first a)) 1) 0))

;; "well_formed"
(define-fun well_formed ((a us_t)) Bool
  (has_bounds
    (elts a)
    (to_rep1 (rec__first (rt a)))
    (to_rep1 (rec__last (rt a)))))

(declare-const m__first tinteger_32B)

(declare-const m__last tinteger_32B)

(declare-const sm us_t)

(declare-const pk us_rep)

(declare-sort gf16_normal_limb 0)

;; "to_rep"
(declare-fun to_rep2 (gf16_normal_limb) (_ BitVec 16))

;; "of_rep"
(declare-fun of_rep2 ((_ BitVec 16)) gf16_normal_limb)

;; "inversion_axiom"
(assert
  (forall ((x gf16_normal_limb))
    (! (= (of_rep2 (to_rep2 x)) x) :pattern ((to_rep2 x)) )))

;; "range_axiom"
(assert true)

;; "coerce_axiom"
(assert
  (forall ((x (_ BitVec 16)))
    (! (= (to_rep2 (of_rep2 x)) x) :pattern ((to_rep2 (of_rep2 x))) )))

(declare-sort map2 0)

;; "has_bounds"
(declare-fun has_bounds1 (map2
  Int
  Int) Bool)

(declare-sort map3 0)

(declare-datatypes ()
  ((map__ref1 (map__refqtmk1 (map__content1 map3)))))

;; "has_bounds"
(declare-fun has_bounds2 (map3
  Int
  Int) Bool)

;; "get"
(declare-fun get1 (map3
  Int) map2)

;; "dynamic_invariant"
(define-fun dynamic_invariant1 ((temp___expr_683 map3) (temp___is_init_679 Bool) (temp___skip_constant_680 Bool) (temp___do_toplevel_681 Bool) (temp___do_typ_inv_682 Bool)) Bool
  (and
    (has_bounds2 temp___expr_683 0 3)
    (forall ((temp___684 Int))
      (=>
        (and (<= 0 temp___684) (<= temp___684 3))
        (has_bounds1 (get1 temp___expr_683 temp___684) 0 15)))))

;; "oadd"
(declare-fun oadd (map3
  map3) map3)

;; "oadd__function_guard"
(declare-fun oadd__function_guard (map3
  map3
  map3) Bool)

;; "scalarmult"
(declare-fun scalarmult (map3
  map1) map3)

;; "scalarmult__function_guard"
(declare-fun scalarmult__function_guard (map3
  map3
  map1) Bool)

;; "scalarbase"
(declare-fun scalarbase (map1) map3)

;; "scalarbase__function_guard"
(declare-fun scalarbase__function_guard (map3
  map1) Bool)

;; "pack"
(declare-fun pack (map3) map1)

;; "pack__function_guard"
(declare-fun pack__function_guard (map1
  map3) Bool)

;; "hash_reduce"
(declare-fun hash_reduce (us_t) map1)

;; "hash_reduce__function_guard"
(declare-fun hash_reduce__function_guard (map1
  us_t) Bool)

;; "equal"
(declare-fun equal (us_t
  us_t) Bool)

;; "equal__function_guard"
(declare-fun equal__function_guard (Bool
  us_t
  us_t) Bool)

;; "dynamic_invariant"
(define-fun dynamic_invariant2 ((temp___expr_486 us_t) (temp___is_init_482 Bool) (temp___skip_constant_483 Bool) (temp___do_toplevel_484 Bool) (temp___do_typ_inv_485 Bool)) Bool
  (and
    (=>
      (not (= temp___skip_constant_483 true))
      (dynamic_property
        0
        2147483647
        (first temp___expr_486)
        (last temp___expr_486)))
    (well_formed temp___expr_486)))

;; "in_range"
(define-fun in_range2 ((x Int)) Bool
  (and (<= (- 2147483648) x) (<= x 2147483647)))

;; "in_range"
(define-fun in_range3 ((x Int)) Bool
  (and (<= (- 9223372036854775808) x) (<= x 9223372036854775807)))

(declare-const m map1)

(declare-const status Bool)

(declare-const mlen Int)

(declare-const t1 map1)

(declare-const p map3)

(declare-const q map3)

(declare-const ln Int)

;; "ln'unused"
(define-fun lnqtunused () int__ref
  (int__refqtmk ln))

;; "q'unused"
(define-fun qqtunused () map__ref1
  (map__refqtmk1 q))

;; "p'unused"
(define-fun pqtunused () map__ref1
  (map__refqtmk1 p))

;; "t'unused"
(define-fun tqtunused () map__ref
  (map__refqtmk t1))

;; "m'unused"
(define-fun mqtunused () map__ref
  (map__refqtmk m))

;; "Assume"
(assert
  (and
    (dynamic_property 0 2147483647 (to_rep1 m__first) (to_rep1 m__last))
    (well_formed (of_array m (to_rep1 m__first) (to_rep1 m__last)))))

;; "Assume"
(assert (in_range2 mlen))

;; "Assume"
(assert (dynamic_invariant2 sm true false true true))

;; "Assume"
(assert (dynamic_invariant pk true false true true))

;; "Assume"
(assert
  (and
    (and
      (and
        (and (= (to_rep1 m__first) 0) (= (first sm) 0))
        (= (length1 sm) (length (to_rep1 m__first) (to_rep1 m__last))))
      (= (last sm) (to_rep1 m__last)))
    (<= 64 (length1 sm))))

;; "Assume"
(assert true)

;; "Assume"
(assert (has_bounds t1 0 31))

;; "Assume"
(assert true)

;; "Assume"
(assert (dynamic_invariant1 p false false true true))

;; "Assume"
(assert true)

;; "Assume"
(assert (dynamic_invariant1 q false false true true))

;; "Assume"
(assert true)

;; "Assume"
(assert (in_range2 ln))

;; "o"
(define-fun o () Int
  (length1 sm))

;; "length'result'unused"
(define-fun lengthqtresultqtunused () Int
  o)

;; "o"
(define-fun o1 () Bool
  (ite (< o 64) true false))

;; "infix <'result'unused"
(define-fun infix_lsqtresultqtunused () Bool
  o1)

(declare-const spark__branch Bool)

;; "spark__branch'unused"
(define-fun spark__branchqtunused () bool__ref
  (bool__refqtmk spark__branch))

;; "H"
(assert (= spark__branch o1))

;; "bool__content'result'unused"
(define-fun bool__contentqtresultqtunused () Bool
  spark__branch)

;; "H"
(assert (not (= spark__branch true)))

;; "map__content'result'unused"
(define-fun map__contentqtresultqtunused () map3
  q)

;; "bool__content'result'unused"
(define-fun bool__contentqtresultqtunused1 () Bool
  status)

;; "o"
(define-fun o2 () us_rep
  pk)

;; "o"
(define-fun o3 () map1
  (serialize o2))

;; "H"
(assert (serialize__function_guard o3 o2))

;; "H"
(assert (has_bounds o3 0 31))

;; "serialize'result'unused"
(define-fun serializeqtresultqtunused () map1
  o3)

(declare-const status1 Bool)

(declare-const q1 map3)

;; "q'unused"
(define-fun qqtunused1 () map__ref1
  (map__refqtmk1 q1))

;; "H"
(assert (dynamic_invariant1 q1 true true true true))

;; "H"
(assert true)

;; "H"
(assert true)

;; "bool__content'result'unused"
(define-fun bool__contentqtresultqtunused2 () Bool
  status1)

(declare-const spark__branch1 Bool)

;; "spark__branch'unused"
(define-fun spark__branchqtunused1 () bool__ref
  (bool__refqtmk spark__branch1))

;; "H"
(assert (= spark__branch1 (ite (= status1 true) false true)))

;; "bool__content'result'unused"
(define-fun bool__contentqtresultqtunused3 () Bool
  spark__branch1)

;; "H"
(assert (not (= spark__branch1 true)))

(declare-const o4 Int)

;; "Ensures"
(assert (= (to_rep1 m__last) o4))

;; "to_rep'result'unused"
(define-fun to_repqtresultqtunused () Int
  o4)

(declare-const o5 Int)

;; "Ensures"
(assert (= (to_rep1 m__first) o5))

;; "to_rep'result'unused"
(define-fun to_repqtresultqtunused1 () Int
  o5)

;; "map__content'result'unused"
(define-fun map__contentqtresultqtunused1 () map1
  m)

;; "temp___1779"
(define-fun temp___1779 () us_t
  (of_array m o5 o4))

;; "of_array'result'unused"
(define-fun of_arrayqtresultqtunused () us_t
  temp___1779)

;; "Assert"
(assert
  (ite (<= (first sm) (last sm))
    (and (<= o5 o4) (= (- (last sm) (first sm)) (- o4 o5)))
    (< o4 o5)))

;; "temp___1780"
(define-fun temp___1780 () us_t
  sm)

(declare-const o6 Int)

;; "Ensures"
(assert (= (to_rep1 m__first) o6))

;; "to_rep'result'unused"
(define-fun to_repqtresultqtunused2 () Int
  o6)

;; "o"
(define-fun o7 () Int
  (first temp___1780))

;; "first'result'unused"
(define-fun firstqtresultqtunused () Int
  o7)

;; "o"
(define-fun o8 () map1
  (to_array temp___1780))

;; "to_array'result'unused"
(define-fun to_arrayqtresultqtunused () map1
  o8)

;; "temp___1784"
(define-fun temp___1784 () map1
  (slide o8 o7 o6))

;; "slide'result'unused"
(define-fun slideqtresultqtunused () map1
  temp___1784)

(declare-const o9 Int)

;; "Ensures"
(assert (= (to_rep1 m__last) o9))

;; "to_rep'result'unused"
(define-fun to_repqtresultqtunused3 () Int
  o9)

(declare-const o10 Int)

;; "Ensures"
(assert (= (to_rep1 m__first) o10))

;; "to_rep'result'unused"
(define-fun to_repqtresultqtunused4 () Int
  o10)

;; "o"
(define-fun o11 () us_t
  (of_array temp___1784 o10 o9))

;; "of_array'result'unused"
(define-fun of_arrayqtresultqtunused1 () us_t
  o11)

;; "o"
(define-fun o12 () map1
  temp___1784)

;; "to_array'result'unused"
(define-fun to_arrayqtresultqtunused1 () map1
  o12)

(declare-const m1 map1)

;; "m'unused"
(define-fun mqtunused1 () map__ref
  (map__refqtmk m1))

;; "H"
(assert (= m1 o12))

(declare-const o13 Int)

;; "Ensures"
(assert (= (to_rep1 m__last) o13))

;; "to_rep'result'unused"
(define-fun to_repqtresultqtunused5 () Int
  o13)

(declare-const o14 Int)

;; "Ensures"
(assert (= (to_rep1 m__first) o14))

;; "to_rep'result'unused"
(define-fun to_repqtresultqtunused6 () Int
  o14)

;; "map__content'result'unused"
(define-fun map__contentqtresultqtunused2 () map1
  m1)

;; "temp___1788"
(define-fun temp___1788 () us_t
  (of_array m1 o14 o13))

;; "of_array'result'unused"
(define-fun of_arrayqtresultqtunused2 () us_t
  temp___1788)

;; "o"
(define-fun o15 () us_rep
  pk)

;; "temp___1786"
(define-fun temp___1786 () map1
  (serialize o15))

;; "H"
(assert (serialize__function_guard temp___1786 o15))

;; "H"
(assert (has_bounds temp___1786 0 31))

;; "serialize'result'unused"
(define-fun serializeqtresultqtunused1 () map1
  temp___1786)

;; "temp___1787"
(define-fun temp___1787 () map1
  (slide temp___1786 0 32))

;; "slide'result'unused"
(define-fun slideqtresultqtunused1 () map1
  temp___1787)

(declare-const infix_lseqqtresultqtunused Bool)

;; "H"
(assert (= infix_lseqqtresultqtunused (ite (<= 32 63) true false)))

(declare-const usf us_t)

;; "H"
(assert true)

;; "H"
(assert (= o14 (first usf)))

;; "H"
(assert (= o13 (last usf)))

;; "H"
(assert
  (forall ((temp___1791 Int))
    (ite (and (<= 32 temp___1791) (<= temp___1791 63))
      (= (get (to_array usf) temp___1791) (get temp___1787 temp___1791))
      (= (get (to_array usf) temp___1791) (get m1 temp___1791)))))

;; "any'result'unused"
(define-fun anyqtresultqtunused () us_t
  usf)

;; "o"
(define-fun o16 () map1
  (to_array usf))

;; "to_array'result'unused"
(define-fun to_arrayqtresultqtunused2 () map1
  o16)

(declare-const m2 map1)

;; "m'unused"
(define-fun mqtunused2 () map__ref
  (map__refqtmk m2))

;; "H"
(assert (= m2 o16))

(declare-const o17 Int)

;; "Ensures"
(assert (= (to_rep1 m__last) o17))

;; "to_rep'result'unused"
(define-fun to_repqtresultqtunused7 () Int
  o17)

(declare-const o18 Int)

;; "Ensures"
(assert (= (to_rep1 m__first) o18))

;; "to_rep'result'unused"
(define-fun to_repqtresultqtunused8 () Int
  o18)

;; "map__content'result'unused"
(define-fun map__contentqtresultqtunused3 () map1
  m2)

;; "temp___1797"
(define-fun temp___1797 () us_t
  (of_array m2 o18 o17))

;; "of_array'result'unused"
(define-fun of_arrayqtresultqtunused3 () us_t
  temp___1797)

;; "temp___1798"
(define-fun temp___1798 () map1
  m2)

;; "to_array'result'unused"
(define-fun to_arrayqtresultqtunused3 () map1
  temp___1798)

;; "o"
(define-fun o19 () Int
  o17)

;; "last'result'unused"
(define-fun lastqtresultqtunused () Int
  o19)

;; "o"
(define-fun o20 () Int
  o18)

;; "first'result'unused"
(define-fun firstqtresultqtunused1 () Int
  o20)

;; "o"
(define-fun o21 () us_t
  (of_array temp___1798 o20 o19))

;; "of_array'result'unused"
(define-fun of_arrayqtresultqtunused4 () us_t
  o21)

;; "o"
(define-fun o22 () map1
  (hash_reduce o21))

;; "H"
(assert (hash_reduce__function_guard o22 o21))

;; "H"
(assert (has_bounds o22 0 31))

;; "hash_reduce'result'unused"
(define-fun hash_reduceqtresultqtunused () map1
  o22)

;; "map__content'result'unused"
(define-fun map__contentqtresultqtunused4 () map3
  q1)

;; "o"
(define-fun o23 () map3
  (scalarmult q1 o22))

;; "H"
(assert (scalarmult__function_guard o23 q1 o22))

;; "H"
(assert (dynamic_invariant1 o23 true false true true))

;; "scalarmult'result'unused"
(define-fun scalarmultqtresultqtunused () map3
  o23)

(declare-const p1 map3)

;; "p'unused"
(define-fun pqtunused1 () map__ref1
  (map__refqtmk1 p1))

;; "H"
(assert (= p1 o23))

;; "Assert"
(assert
  (=>
    (<= 32 63)
    (and
      (and (<= (first sm) 32) (<= 32 (last sm)))
      (and (<= (first sm) 63) (<= 63 (last sm))))))

;; "o"
(define-fun o24 () map1
  (to_array sm))

;; "to_array'result'unused"
(define-fun to_arrayqtresultqtunused4 () map1
  o24)

;; "temp___1802"
(define-fun temp___1802 () map1
  (slice o24 32 63))

;; "slice'result'unused"
(define-fun sliceqtresultqtunused () map1
  temp___1802)

;; "temp___1803"
(define-fun temp___1803 () map1
  (slide temp___1802 32 0))

;; "slide'result'unused"
(define-fun slideqtresultqtunused2 () map1
  temp___1803)

;; "o"
(define-fun o25 () map3
  (scalarbase temp___1803))

;; "H"
(assert (scalarbase__function_guard o25 temp___1803))

;; "H"
(assert (dynamic_invariant1 o25 true false true true))

;; "scalarbase'result'unused"
(define-fun scalarbaseqtresultqtunused () map3
  o25)

(declare-const q2 map3)

;; "q'unused"
(define-fun qqtunused2 () map__ref1
  (map__refqtmk1 q2))

;; "H"
(assert (= q2 o25))

;; "map__content'result'unused"
(define-fun map__contentqtresultqtunused5 () map3
  q2)

;; "map__content'result'unused"
(define-fun map__contentqtresultqtunused6 () map3
  p1)

;; "o"
(define-fun o26 () map3
  (oadd p1 q2))

;; "H"
(assert (oadd__function_guard o26 p1 q2))

;; "H"
(assert (dynamic_invariant1 o26 true false true true))

;; "oadd'result'unused"
(define-fun oaddqtresultqtunused () map3
  o26)

(declare-const p2 map3)

;; "p'unused"
(define-fun pqtunused2 () map__ref1
  (map__refqtmk1 p2))

;; "H"
(assert (= p2 o26))

;; "map__content'result'unused"
(define-fun map__contentqtresultqtunused7 () map3
  p2)

;; "o"
(define-fun o27 () map1
  (pack p2))

;; "H"
(assert (pack__function_guard o27 p2))

;; "H"
(assert (has_bounds o27 0 31))

;; "pack'result'unused"
(define-fun packqtresultqtunused () map1
  o27)

(declare-const t2 map1)

;; "t'unused"
(define-fun tqtunused1 () map__ref
  (map__refqtmk t2))

;; "H"
(assert (= t2 o27))

;; "map__content'result'unused"
(define-fun map__contentqtresultqtunused8 () map1
  t2)

;; "o"
(define-fun o28 () us_t
  (of_array t2 0 31))

;; "of_array'result'unused"
(define-fun of_arrayqtresultqtunused5 () us_t
  o28)

;; "Assert"
(assert
  (=>
    (<= 0 31)
    (and
      (and (<= (first sm) 0) (<= 0 (last sm)))
      (and (<= (first sm) 31) (<= 31 (last sm))))))

;; "o"
(define-fun o29 () map1
  (to_array sm))

;; "to_array'result'unused"
(define-fun to_arrayqtresultqtunused5 () map1
  o29)

;; "temp___1838"
(define-fun temp___1838 () map1
  (slice o29 0 31))

;; "slice'result'unused"
(define-fun sliceqtresultqtunused1 () map1
  temp___1838)

;; "o"
(define-fun o30 () us_t
  (of_array temp___1838 0 31))

;; "of_array'result'unused"
(define-fun of_arrayqtresultqtunused6 () us_t
  o30)

;; "o"
(define-fun o31 () Bool
  (equal o30 o28))

;; "H"
(assert (equal__function_guard o31 o30 o28))

;; "H"
(assert
  (=
    (= o31 true)
    (forall ((i Int))
      (=>
        (and (<= 0 i) (<= i 31))
        (= (to_rep (get temp___1838 i)) (to_rep (get t2 i)))))))

;; "equal'result'unused"
(define-fun equalqtresultqtunused () Bool
  o31)

(declare-const spark__branch2 Bool)

;; "spark__branch'unused"
(define-fun spark__branchqtunused2 () bool__ref
  (bool__refqtmk spark__branch2))

;; "H"
(assert (= spark__branch2 (ite (= o31 true) false true)))

;; "bool__content'result'unused"
(define-fun bool__contentqtresultqtunused4 () Bool
  spark__branch2)

;; "H"
(assert (not (= spark__branch2 true)))

;; "o"
(define-fun o32 () Int
  (length1 sm))

;; "length'result'unused"
(define-fun lengthqtresultqtunused1 () Int
  o32)

;; "Ensures"
(assert (in_range3 o32))

;; "range_check_'result'unused"
(define-fun range_check_qtresultqtunused () Int
  o32)

;; "o"
(define-fun o33 () Int
  (- o32 64))

;; "infix -'result'unused"
(define-fun infix_mnqtresultqtunused () Int
  o33)

;; "Ensures"
(assert (in_range2 o33))

;; "range_check_'result'unused"
(define-fun range_check_qtresultqtunused1 () Int
  o33)

(declare-const ln1 Int)

;; "ln'unused"
(define-fun lnqtunused1 () int__ref
  (int__refqtmk ln1))

;; "H"
(assert (= ln1 o33))

(declare-const o34 Int)

;; "Ensures"
(assert (= (to_rep1 m__last) o34))

;; "to_rep'result'unused"
(define-fun to_repqtresultqtunused9 () Int
  o34)

(declare-const o35 Int)

;; "Ensures"
(assert (= (to_rep1 m__first) o35))

;; "to_rep'result'unused"
(define-fun to_repqtresultqtunused10 () Int
  o35)

;; "map__content'result'unused"
(define-fun map__contentqtresultqtunused9 () map1
  m2)

;; "temp___1852"
(define-fun temp___1852 () us_t
  (of_array m2 o35 o34))

;; "of_array'result'unused"
(define-fun of_arrayqtresultqtunused7 () us_t
  temp___1852)

;; "int__content'result'unused"
(define-fun int__contentqtresultqtunused () Int
  ln1)

;; "o"
(define-fun o36 () Int
  (+ ln1 63))

;; "infix +'result'unused"
(define-fun infix_plqtresultqtunused () Int
  o36)

;; Goal "def'vc"
;; File "sparknacl-sign.ads", line 54, characters 0-0
(assert
  (not (<= (- 2147483648) o36)))

(check-sat)
